%%%mzn-stat: initTime=0.046192036
%%%mzn-stat: objective=875
%%%mzn-stat: nodes=36305
%%%mzn-stat: restarts=3
%%%mzn-stat: peakDepth=2083
%%%mzn-stat: solveTime=47.076105909
%%%mzn-stat: variables=3322
%%%mzn-stat: propagators=2884
%%%mzn-stat: failures=30141
%%%mzn-stat: propagations=2518111
%%%mzn-stat: nogoods=30141
%%%mzn-stat: AverageConflictSize=27.665505457682226
%%%mzn-stat: NumUnitNogoodsLearned=140
%%%mzn-stat: AverageLearnedNogoodLength=89.91151587538569
%%%mzn-stat: AverageBacktrackAmount=0
%%%mzn-stat: AverageLbd=19.072525795428156
%%%mzn-stat-end
maxleg = 875;
succ = array1d(1..150,[105, 141, 147, 118, 20, 100, 16, 103, 135, 59, 89, 131, 143, 133, 68, 32, 48, 108, 44, 123, 45, 129, 28, 62, 91, 7, 130, 119, 1, 112, 75, 137, 60, 12, 120, 122, 19, 106, 94, 149, 145, 69, 84, 76, 70, 83, 102, 55, 57, 121, 26, 144, 150, 90, 79, 21, 17, 148, 115, 34, 142, 9, 127, 116, 138, 49, 88, 50, 132, 13, 51, 56, 82, 6, 136, 114, 33, 109, 98, 22, 52, 35, 86, 3, 11, 4, 96, 24, 46, 92, 66, 81, 25, 67, 23, 95, 78, 104, 80, 97, 107, 27, 2, 77, 140, 14, 99, 53, 8, 43, 63, 72, 134, 58, 40, 5, 18, 39, 111, 36, 61, 113, 124, 117, 37, 73, 15, 87, 31, 126, 54, 85, 146, 139, 125, 41, 42, 71, 74, 10, 110, 101, 64, 38, 30, 128, 93, 29, 47, 65]);
% time elapsed: 48.85 s
----------
%%%mzn-stat: initTime=0.046192036
%%%mzn-stat: objective=303
%%%mzn-stat: nodes=39025
%%%mzn-stat: restarts=4
%%%mzn-stat: peakDepth=2314
%%%mzn-stat: solveTime=47.307354818
%%%mzn-stat: variables=3322
%%%mzn-stat: propagators=2884
%%%mzn-stat: failures=30179
%%%mzn-stat: propagations=2532548
%%%mzn-stat: nogoods=30179
%%%mzn-stat: AverageConflictSize=27.72659796547268
%%%mzn-stat: NumUnitNogoodsLearned=140
%%%mzn-stat: AverageLearnedNogoodLength=89.92501408264025
%%%mzn-stat: AverageBacktrackAmount=0
%%%mzn-stat: AverageLbd=19.103979588455548
%%%mzn-stat-end
maxleg = 303;
succ = array1d(1..150,[105, 141, 147, 118, 20, 100, 16, 103, 135, 59, 108, 131, 143, 133, 68, 32, 48, 69, 44, 123, 45, 129, 28, 62, 91, 7, 130, 119, 1, 112, 75, 137, 60, 12, 120, 73, 19, 106, 94, 149, 145, 70, 89, 76, 64, 83, 102, 55, 57, 121, 26, 144, 150, 90, 79, 21, 17, 148, 84, 34, 142, 9, 127, 116, 138, 49, 88, 50, 132, 13, 51, 56, 82, 6, 136, 114, 33, 109, 98, 22, 52, 115, 86, 3, 11, 4, 96, 24, 46, 92, 66, 81, 25, 67, 23, 95, 78, 104, 80, 97, 107, 27, 2, 77, 140, 14, 99, 53, 8, 43, 63, 72, 134, 58, 40, 5, 18, 39, 111, 36, 61, 113, 124, 117, 37, 122, 15, 87, 31, 126, 54, 85, 146, 139, 125, 41, 42, 71, 74, 10, 110, 101, 35, 38, 30, 128, 93, 29, 47, 65]);
% time elapsed: 49.07 s
----------
%%%mzn-stat: initTime=0.046192036
%%%mzn-stat: objective=282
%%%mzn-stat: nodes=46892
%%%mzn-stat: restarts=5
%%%mzn-stat: peakDepth=2314
%%%mzn-stat: solveTime=54.574054554
%%%mzn-stat: variables=3322
%%%mzn-stat: propagators=2884
%%%mzn-stat: failures=35361
%%%mzn-stat: propagations=2892869
%%%mzn-stat: nogoods=35361
%%%mzn-stat: AverageConflictSize=29.047821045784904
%%%mzn-stat: NumUnitNogoodsLearned=140
%%%mzn-stat: AverageLearnedNogoodLength=84.89191482141342
%%%mzn-stat: AverageBacktrackAmount=0
%%%mzn-stat: AverageLbd=18.56709369078929
%%%mzn-stat-end
maxleg = 282;
succ = array1d(1..150,[105, 141, 147, 118, 20, 100, 16, 103, 135, 59, 108, 131, 143, 133, 68, 32, 48, 69, 44, 123, 45, 129, 28, 62, 91, 7, 130, 119, 1, 112, 75, 137, 60, 12, 120, 122, 19, 106, 94, 149, 145, 70, 89, 76, 64, 83, 102, 55, 57, 121, 26, 144, 150, 90, 79, 21, 17, 148, 84, 34, 142, 9, 127, 116, 138, 49, 88, 50, 132, 13, 51, 56, 36, 6, 136, 114, 33, 109, 98, 22, 52, 115, 86, 3, 11, 4, 96, 24, 46, 92, 66, 81, 25, 67, 23, 95, 78, 104, 80, 97, 107, 27, 2, 77, 140, 14, 99, 53, 8, 43, 63, 72, 134, 58, 40, 5, 18, 39, 111, 82, 61, 113, 124, 117, 37, 73, 15, 87, 31, 126, 54, 85, 146, 139, 125, 41, 42, 71, 74, 10, 110, 101, 35, 38, 30, 128, 93, 29, 47, 65]);
% time elapsed: 56.35 s
----------
%%%mzn-stat: initTime=0.046192036
%%%mzn-stat: objective=279
%%%mzn-stat: nodes=49551
%%%mzn-stat: restarts=6
%%%mzn-stat: peakDepth=2314
%%%mzn-stat: solveTime=54.849372574
%%%mzn-stat: variables=3322
%%%mzn-stat: propagators=2884
%%%mzn-stat: failures=35411
%%%mzn-stat: propagations=2906991
%%%mzn-stat: nogoods=35411
%%%mzn-stat: AverageConflictSize=29.118211855073284
%%%mzn-stat: NumUnitNogoodsLearned=140
%%%mzn-stat: AverageLearnedNogoodLength=84.8934794272966
%%%mzn-stat: AverageBacktrackAmount=0
%%%mzn-stat: AverageLbd=18.603032955861174
%%%mzn-stat-end
maxleg = 279;
succ = array1d(1..150,[105, 141, 147, 118, 20, 100, 16, 103, 135, 59, 108, 131, 143, 133, 68, 32, 48, 69, 44, 123, 45, 129, 28, 62, 91, 7, 130, 119, 1, 112, 75, 137, 60, 12, 120, 122, 19, 106, 94, 149, 145, 70, 89, 76, 64, 83, 102, 55, 57, 121, 26, 144, 150, 90, 79, 21, 17, 148, 84, 34, 142, 9, 127, 116, 138, 49, 88, 50, 132, 13, 51, 56, 36, 6, 136, 114, 33, 109, 98, 22, 52, 115, 86, 3, 11, 4, 96, 24, 46, 92, 66, 81, 25, 67, 23, 95, 78, 104, 80, 97, 107, 27, 2, 77, 140, 14, 99, 53, 8, 43, 63, 72, 134, 58, 40, 5, 18, 39, 111, 82, 61, 113, 124, 117, 37, 73, 15, 87, 31, 126, 54, 85, 146, 139, 125, 41, 42, 71, 74, 10, 110, 101, 35, 38, 30, 128, 93, 29, 47, 65]);
% time elapsed: 56.64 s
----------
%%%mzn-stat: initTime=0.046192036
%%%mzn-stat: objective=249
%%%mzn-stat: nodes=52257
%%%mzn-stat: restarts=7
%%%mzn-stat: peakDepth=2329
%%%mzn-stat: solveTime=55.281534668
%%%mzn-stat: variables=3322
%%%mzn-stat: propagators=2884
%%%mzn-stat: failures=35466
%%%mzn-stat: propagations=2920571
%%%mzn-stat: nogoods=35466
%%%mzn-stat: AverageConflictSize=29.107370439293973
%%%mzn-stat: NumUnitNogoodsLearned=140
%%%mzn-stat: AverageLearnedNogoodLength=85.13596120227824
%%%mzn-stat: AverageBacktrackAmount=0
%%%mzn-stat: AverageLbd=18.6236959341341
%%%mzn-stat-end
maxleg = 249;
succ = array1d(1..150,[105, 141, 147, 118, 20, 100, 11, 103, 135, 55, 108, 131, 143, 133, 68, 26, 48, 69, 44, 123, 45, 129, 31, 62, 91, 7, 130, 119, 1, 112, 75, 137, 60, 23, 120, 97, 19, 92, 94, 149, 145, 70, 89, 76, 64, 83, 102, 58, 57, 121, 16, 144, 150, 96, 79, 21, 17, 148, 84, 28, 142, 9, 127, 116, 138, 49, 88, 50, 132, 5, 51, 56, 82, 6, 136, 114, 33, 109, 98, 22, 52, 115, 86, 3, 13, 4, 54, 24, 46, 106, 66, 90, 25, 67, 12, 95, 113, 104, 80, 122, 107, 27, 2, 81, 140, 14, 99, 53, 8, 59, 63, 72, 134, 77, 40, 78, 18, 39, 111, 36, 61, 47, 124, 117, 37, 73, 15, 87, 30, 126, 34, 85, 146, 139, 125, 41, 42, 32, 74, 10, 110, 101, 35, 38, 71, 128, 93, 29, 43, 65]);
% time elapsed: 57.08 s
----------
%%%mzn-stat: initTime=0.046192036
%%%mzn-stat: objective=242
%%%mzn-stat: nodes=55025
%%%mzn-stat: restarts=8
%%%mzn-stat: peakDepth=2345
%%%mzn-stat: solveTime=55.570314128
%%%mzn-stat: variables=3322
%%%mzn-stat: propagators=2884
%%%mzn-stat: failures=35515
%%%mzn-stat: propagations=2935150
%%%mzn-stat: nogoods=35515
%%%mzn-stat: AverageConflictSize=29.08680839082078
%%%mzn-stat: NumUnitNogoodsLearned=140
%%%mzn-stat: AverageLearnedNogoodLength=85.14157398282416
%%%mzn-stat: AverageBacktrackAmount=0
%%%mzn-stat: AverageLbd=18.63516823877235
%%%mzn-stat-end
maxleg = 242;
succ = array1d(1..150,[105, 141, 147, 118, 20, 100, 11, 103, 135, 55, 108, 131, 143, 133, 68, 26, 48, 69, 44, 123, 39, 129, 31, 62, 91, 7, 130, 119, 1, 112, 75, 137, 60, 23, 82, 120, 19, 92, 94, 149, 145, 70, 89, 76, 64, 83, 102, 58, 57, 121, 45, 144, 150, 96, 79, 21, 17, 148, 84, 28, 142, 8, 127, 13, 138, 49, 88, 50, 16, 5, 51, 56, 36, 6, 136, 114, 33, 97, 98, 22, 52, 115, 86, 3, 132, 4, 54, 24, 46, 106, 66, 90, 25, 67, 12, 95, 113, 104, 80, 122, 107, 27, 2, 81, 140, 14, 99, 53, 9, 59, 63, 72, 134, 77, 40, 78, 18, 109, 111, 35, 61, 47, 124, 117, 37, 73, 15, 87, 30, 126, 34, 116, 146, 139, 125, 41, 42, 32, 74, 10, 110, 101, 85, 38, 65, 128, 93, 29, 43, 71]);
% time elapsed: 57.38 s
----------
%%%mzn-stat: initTime=0.046192036
%%%mzn-stat: objective=231
%%%mzn-stat: nodes=57990
%%%mzn-stat: restarts=9
%%%mzn-stat: peakDepth=2345
%%%mzn-stat: solveTime=55.896179909
%%%mzn-stat: variables=3322
%%%mzn-stat: propagators=2884
%%%mzn-stat: failures=35571
%%%mzn-stat: propagations=2951623
%%%mzn-stat: nogoods=35571
%%%mzn-stat: AverageConflictSize=29.111382868066684
%%%mzn-stat: NumUnitNogoodsLearned=140
%%%mzn-stat: AverageLearnedNogoodLength=85.11562789913131
%%%mzn-stat: AverageBacktrackAmount=0
%%%mzn-stat: AverageLbd=18.644738691630824
%%%mzn-stat-end
maxleg = 231;
succ = array1d(1..150,[105, 141, 147, 118, 20, 100, 11, 103, 135, 25, 108, 131, 143, 133, 68, 26, 48, 32, 44, 123, 39, 129, 28, 31, 91, 7, 130, 119, 1, 112, 75, 69, 60, 23, 82, 120, 33, 98, 94, 149, 145, 70, 78, 76, 64, 83, 102, 58, 55, 121, 45, 144, 150, 96, 79, 21, 17, 148, 84, 87, 142, 8, 127, 116, 138, 49, 88, 50, 16, 5, 51, 56, 36, 6, 136, 114, 62, 46, 77, 22, 52, 115, 86, 3, 132, 4, 54, 24, 40, 111, 66, 90, 19, 67, 12, 95, 113, 104, 80, 122, 107, 27, 2, 92, 140, 14, 99, 53, 9, 89, 63, 72, 134, 57, 59, 13, 18, 109, 106, 35, 61, 47, 124, 97, 37, 73, 15, 81, 30, 126, 34, 137, 146, 139, 125, 41, 42, 117, 74, 10, 110, 101, 85, 38, 65, 128, 93, 29, 43, 71]);
% time elapsed: 57.71 s
----------
%%%mzn-stat: initTime=0.046192036
%%%mzn-stat: objective=141
%%%mzn-stat: nodes=59466
%%%mzn-stat: restarts=9
%%%mzn-stat: peakDepth=2345
%%%mzn-stat: solveTime=56.166623448
%%%mzn-stat: variables=3322
%%%mzn-stat: propagators=2884
%%%mzn-stat: failures=35677
%%%mzn-stat: propagations=2966487
%%%mzn-stat: nogoods=35677
%%%mzn-stat: AverageConflictSize=29.067746727583597
%%%mzn-stat: NumUnitNogoodsLearned=140
%%%mzn-stat: AverageLearnedNogoodLength=85.0787622277658
%%%mzn-stat: AverageBacktrackAmount=0
%%%mzn-stat: AverageLbd=18.616111220113797
%%%mzn-stat-end
maxleg = 141;
succ = array1d(1..150,[10, 141, 147, 109, 117, 74, 11, 62, 125, 25, 108, 111, 137, 133, 60, 7, 140, 32, 37, 124, 53, 145, 34, 33, 59, 16, 130, 131, 17, 136, 39, 69, 77, 12, 6, 35, 44, 106, 67, 149, 129, 85, 115, 93, 71, 43, 100, 57, 1, 119, 21, 144, 75, 87, 79, 22, 29, 148, 84, 94, 142, 4, 61, 116, 150, 55, 118, 50, 26, 5, 65, 31, 97, 47, 56, 91, 135, 143, 114, 121, 52, 78, 89, 3, 132, 2, 98, 23, 19, 127, 66, 90, 76, 72, 15, 95, 113, 104, 28, 126, 107, 27, 8, 81, 49, 14, 80, 138, 9, 46, 63, 41, 120, 58, 40, 70, 13, 103, 96, 82, 99, 36, 20, 64, 24, 73, 68, 92, 30, 134, 54, 18, 146, 139, 86, 88, 42, 45, 122, 105, 83, 101, 123, 38, 112, 128, 110, 48, 102, 51]);
% time elapsed: 57.99 s
----------
==========
% time elapsed: 58.00 s
%%%mzn-stat: initTime=0.046192036
%%%mzn-stat: objective=141
%%%mzn-stat: nodes=59466
%%%mzn-stat: restarts=9
%%%mzn-stat: peakDepth=2345
%%%mzn-stat: solveTime=56.166635614
%%%mzn-stat: variables=3322
%%%mzn-stat: propagators=2884
%%%mzn-stat: failures=35677
%%%mzn-stat: propagations=2966487
%%%mzn-stat: nogoods=35677
%%%mzn-stat: AverageConflictSize=29.067746727583597
%%%mzn-stat: NumUnitNogoodsLearned=140
%%%mzn-stat: AverageLearnedNogoodLength=85.0787622277658
%%%mzn-stat: AverageBacktrackAmount=0
%%%mzn-stat: AverageLbd=18.616111220113797
%%%mzn-stat-end
